"","dataset","j","k","dado","distribuicao","method","hypothesis","statistics","pValue","par1","par2","par3"
"1",1,1,0,"DURACAO - 1 - Com Outlier - 0","plnorm","One-sample Kolmogorov-Smirnov test","two-sided",0.0652939777098613,9.7913880441336e-06,-1.71638187737025,2.41154921849899,NA
"2",1,1,0,"DURACAO - 1 - Com Outlier - 0","plnorm","Cramer-von Mises test of goodness-of-fit","Null hypothesis: distribution 'distribuicaoFuncao'",1.50812324736192,0.000164570507299344,-1.71638187737025,2.41154921849899,NA
"3",1,1,0,"DURACAO - 1 - Com Outlier - 0","plnorm","Anderson-Darling test of goodness-of-fit","Null hypothesis: distribution 'distribuicaoFuncao'",9.08926807109719,2.9417680264876e-05,-1.71638187737025,2.41154921849899,NA
"4",1,1,0,"DURACAO - 1 - Com Outlier - 0","pweibull","One-sample Kolmogorov-Smirnov test","two-sided",0.0366136059317838,0.0427845759168245,0.479939196781296,0.572133949842685,NA
"5",1,1,0,"DURACAO - 1 - Com Outlier - 0","pweibull","Cramer-von Mises test of goodness-of-fit","Null hypothesis: distribution 'distribuicaoFuncao'",0.343915582967541,0.102139265382795,0.479939196781296,0.572133949842685,NA
"6",1,1,0,"DURACAO - 1 - Com Outlier - 0","pweibull","Anderson-Darling test of goodness-of-fit","Null hypothesis: distribution 'distribuicaoFuncao'",3.1059876624297,0.0241916843736582,0.479939196781296,0.572133949842685,NA
"7",1,1,0,"DURACAO - 1 - Com Outlier - 0","pllogis","One-sample Kolmogorov-Smirnov test","two-sided",0.0543130399063839,0.000423403853087811,0.709329323480687,0.203032631263619,NA
"8",1,1,0,"DURACAO - 1 - Com Outlier - 0","pllogis","Cramer-von Mises test of goodness-of-fit","Null hypothesis: distribution 'distribuicaoFuncao'",1.2517231828881,0.000637701446297489,0.709329323480687,0.203032631263619,NA
"9",1,1,0,"DURACAO - 1 - Com Outlier - 0","pllogis","Anderson-Darling test of goodness-of-fit","Null hypothesis: distribution 'distribuicaoFuncao'",9.66621411023311,1.25849426572122e-05,0.709329323480687,0.203032631263619,NA
"10",1,1,0,"DURACAO - 1 - Com Outlier - 0","pgamma","One-sample Kolmogorov-Smirnov test","two-sided",0.0710886533789579,1.01505477567709e-06,0.34279164544603,0.266455051362433,NA
"11",1,1,0,"DURACAO - 1 - Com Outlier - 0","pgamma","Cramer-von Mises test of goodness-of-fit","Null hypothesis: distribution 'distribuicaoFuncao'",3.2510807815174,2.04934132996826e-08,0.34279164544603,0.266455051362433,NA
"12",1,1,0,"DURACAO - 1 - Com Outlier - 0","pgamma","Anderson-Darling test of goodness-of-fit","Null hypothesis: distribution 'distribuicaoFuncao'",18.6803753979268,4.18410041724826e-07,0.34279164544603,0.266455051362433,NA
"13",1,1,0,"DURACAO - 1 - Com Outlier - 0","pcauchy","One-sample Kolmogorov-Smirnov test","two-sided",0.332785137889984,0,0.126589759276091,0.218102902110795,NA
"14",1,1,0,"DURACAO - 1 - Com Outlier - 0","pcauchy","Cramer-von Mises test of goodness-of-fit","Null hypothesis: distribution 'distribuicaoFuncao'",42.3016787903937,0,0.126589759276091,0.218102902110795,NA
"15",1,1,0,"DURACAO - 1 - Com Outlier - 0","pcauchy","Anderson-Darling test of goodness-of-fit","Null hypothesis: distribution 'distribuicaoFuncao'",285.638157286505,4.18410041724826e-07,0.126589759276091,0.218102902110795,NA
"16",1,1,0,"DURACAO - 1 - Com Outlier - 0","pexp","One-sample Kolmogorov-Smirnov test","two-sided",0.329372988181229,0,0.777408206337282,NA,NA
"17",1,1,0,"DURACAO - 1 - Com Outlier - 0","pexp","Cramer-von Mises test of goodness-of-fit","Null hypothesis: distribution 'distribuicaoFuncao'",65.6275101341442,0,0.777408206337282,NA,NA
"18",1,1,0,"DURACAO - 1 - Com Outlier - 0","pexp","Anderson-Darling test of goodness-of-fit","Null hypothesis: distribution 'distribuicaoFuncao'",558.983214906249,4.18410041724826e-07,0.777408206337282,NA,NA
"19",1,1,0,"DURACAO - 1 - Com Outlier - 0","pnorm","One-sample Kolmogorov-Smirnov test","two-sided",0.333695595704606,0,1.28632550466846,2.99293806150187,NA
"20",1,1,0,"DURACAO - 1 - Com Outlier - 0","pnorm","Cramer-von Mises test of goodness-of-fit","Null hypothesis: distribution 'distribuicaoFuncao'",49.9854757022211,0,1.28632550466846,2.99293806150187,NA
"21",1,1,0,"DURACAO - 1 - Com Outlier - 0","pnorm","Anderson-Darling test of goodness-of-fit","Null hypothesis: distribution 'distribuicaoFuncao'",Inf,4.18410041724826e-07,1.28632550466846,2.99293806150187,NA
"22",1,1,0,"DURACAO - 1 - Com Outlier - 0","ptriangle","One-sample Kolmogorov-Smirnov test","two-sided",0.20974036245117,0,-0.437590937987259,2.01624119054735,-0.0797937306478983
"23",1,1,0,"DURACAO - 1 - Com Outlier - 0","ptriangle","Cramer-von Mises test of goodness-of-fit","Null hypothesis: distribution 'distribuicaoFuncao'",13.5042365112422,0,-0.437590937987259,2.01624119054735,-0.0797937306478983
"24",1,1,0,"DURACAO - 1 - Com Outlier - 0","ptriangle","Anderson-Darling test of goodness-of-fit","Null hypothesis: distribution 'distribuicaoFuncao'",Inf,4.18410041724826e-07,-0.437590937987259,2.01624119054735,-0.0797937306478983
"25",1,1,1,"DURACAO - 1 - Com Outlier - 1","plnorm","One-sample Kolmogorov-Smirnov test","two-sided",0.0637356516296631,0.00184755141372528,-1.79632055755069,2.39760474426517,NA
"26",1,1,1,"DURACAO - 1 - Com Outlier - 1","plnorm","Cramer-von Mises test of goodness-of-fit","Null hypothesis: distribution 'distribuicaoFuncao'",0.778195919795097,0.00823369172817234,-1.79632055755069,2.39760474426517,NA
"27",1,1,1,"DURACAO - 1 - Com Outlier - 1","plnorm","Anderson-Darling test of goodness-of-fit","Null hypothesis: distribution 'distribuicaoFuncao'",4.60067616386368,0.00445921024732854,-1.79632055755069,2.39760474426517,NA
"28",1,1,1,"DURACAO - 1 - Com Outlier - 1","pweibull","One-sample Kolmogorov-Smirnov test","two-sided",0.0410874544579391,0.109625493388279,0.47537861664289,0.528950204887132,NA
"29",1,1,1,"DURACAO - 1 - Com Outlier - 1","pweibull","Cramer-von Mises test of goodness-of-fit","Null hypothesis: distribution 'distribuicaoFuncao'",0.302261397845147,0.133196076165698,0.47537861664289,0.528950204887132,NA
"30",1,1,1,"DURACAO - 1 - Com Outlier - 1","pweibull","Anderson-Darling test of goodness-of-fit","Null hypothesis: distribution 'distribuicaoFuncao'",2.52364514586429,0.048153365932961,0.47537861664289,0.528950204887132,NA
"31",1,1,1,"DURACAO - 1 - Com Outlier - 1","pllogis","One-sample Kolmogorov-Smirnov test","two-sided",0.0563001580111174,0.00857632052532342,0.710329201483461,0.183512527245055,NA
"32",1,1,1,"DURACAO - 1 - Com Outlier - 1","pllogis","Cramer-von Mises test of goodness-of-fit","Null hypothesis: distribution 'distribuicaoFuncao'",0.74107792912567,0.0101147507582842,0.710329201483461,0.183512527245055,NA
"33",1,1,1,"DURACAO - 1 - Com Outlier - 1","pllogis","Anderson-Darling test of goodness-of-fit","Null hypothesis: distribution 'distribuicaoFuncao'",5.40247545029797,0.00184568365782745,0.710329201483461,0.183512527245055,NA
"34",1,1,1,"DURACAO - 1 - Com Outlier - 1","pgamma","One-sample Kolmogorov-Smirnov test","two-sided",0.0838455265077717,1.12114250947482e-05,0.337657968433033,0.27460943918952,NA
"35",1,1,1,"DURACAO - 1 - Com Outlier - 1","pgamma","Cramer-von Mises test of goodness-of-fit","Null hypothesis: distribution 'distribuicaoFuncao'",2.3760968608738,1.79495800878282e-06,0.337657968433033,0.27460943918952,NA
"36",1,1,1,"DURACAO - 1 - Com Outlier - 1","pgamma","Anderson-Darling test of goodness-of-fit","Null hypothesis: distribution 'distribuicaoFuncao'",13.459817383634,6.97676526217883e-07,0.337657968433033,0.27460943918952,NA
"37",1,1,1,"DURACAO - 1 - Com Outlier - 1","pcauchy","One-sample Kolmogorov-Smirnov test","two-sided",0.335523207707783,0,0.108792119722552,0.19111147705202,NA
"38",1,1,1,"DURACAO - 1 - Com Outlier - 1","pcauchy","Cramer-von Mises test of goodness-of-fit","Null hypothesis: distribution 'distribuicaoFuncao'",26.378324635313,0,0.108792119722552,0.19111147705202,NA
"39",1,1,1,"DURACAO - 1 - Com Outlier - 1","pcauchy","Anderson-Darling test of goodness-of-fit","Null hypothesis: distribution 'distribuicaoFuncao'",180.387622932776,6.97674418348448e-07,0.108792119722552,0.19111147705202,NA
"40",1,1,1,"DURACAO - 1 - Com Outlier - 1","pexp","One-sample Kolmogorov-Smirnov test","two-sided",0.348586514800735,0,0.81325628225436,NA,NA
"41",1,1,1,"DURACAO - 1 - Com Outlier - 1","pexp","Cramer-von Mises test of goodness-of-fit","Null hypothesis: distribution 'distribuicaoFuncao'",42.1423722777621,0,0.81325628225436,NA,NA
"42",1,1,1,"DURACAO - 1 - Com Outlier - 1","pexp","Anderson-Darling test of goodness-of-fit","Null hypothesis: distribution 'distribuicaoFuncao'",357.888774946463,6.97674418348448e-07,0.81325628225436,NA,NA
"43",1,1,1,"DURACAO - 1 - Com Outlier - 1","pnorm","One-sample Kolmogorov-Smirnov test","two-sided",0.338559924694947,0,1.22962469544823,2.95253330662459,NA
"44",1,1,1,"DURACAO - 1 - Com Outlier - 1","pnorm","Cramer-von Mises test of goodness-of-fit","Null hypothesis: distribution 'distribuicaoFuncao'",31.1054048006081,0,1.22962469544823,2.95253330662459,NA
"45",1,1,1,"DURACAO - 1 - Com Outlier - 1","pnorm","Anderson-Darling test of goodness-of-fit","Null hypothesis: distribution 'distribuicaoFuncao'",Inf,6.97674418348448e-07,1.22962469544823,2.95253330662459,NA
"46",1,1,1,"DURACAO - 1 - Com Outlier - 1","ptriangle","One-sample Kolmogorov-Smirnov test","two-sided",0.213763623619443,0,-0.498108323857649,1.86976965171268,-0.00769101865663372
"47",1,1,1,"DURACAO - 1 - Com Outlier - 1","ptriangle","Cramer-von Mises test of goodness-of-fit","Null hypothesis: distribution 'distribuicaoFuncao'",8.38694868173698,0,-0.498108323857649,1.86976965171268,-0.00769101865663372
"48",1,1,1,"DURACAO - 1 - Com Outlier - 1","ptriangle","Anderson-Darling test of goodness-of-fit","Null hypothesis: distribution 'distribuicaoFuncao'",Inf,6.97674418348448e-07,-0.498108323857649,1.86976965171268,-0.00769101865663372
"49",1,1,2,"DURACAO - 1 - Com Outlier - 2","plnorm","One-sample Kolmogorov-Smirnov test","two-sided",0.0820837876911148,1.85362974020054e-05,-1.72472281332552,2.42560304491813,NA
"50",1,1,2,"DURACAO - 1 - Com Outlier - 2","plnorm","Cramer-von Mises test of goodness-of-fit","Null hypothesis: distribution 'distribuicaoFuncao'",1.09780066180591,0.00144758292370328,-1.72472281332552,2.42560304491813,NA
"51",1,1,2,"DURACAO - 1 - Com Outlier - 2","plnorm","Anderson-Darling test of goodness-of-fit","Null hypothesis: distribution 'distribuicaoFuncao'",6.41946452326545,0.000616504781094762,-1.72472281332552,2.42560304491813,NA
"52",1,1,2,"DURACAO - 1 - Com Outlier - 2","pweibull","One-sample Kolmogorov-Smirnov test","two-sided",0.0450462793720608,0.0609897835706987,0.477234068006212,0.572608171454062,NA
"53",1,1,2,"DURACAO - 1 - Com Outlier - 2","pweibull","Cramer-von Mises test of goodness-of-fit","Null hypothesis: distribution 'distribuicaoFuncao'",0.37763884582648,0.0828169102945996,0.477234068006212,0.572608171454062,NA
"54",1,1,2,"DURACAO - 1 - Com Outlier - 2","pweibull","Anderson-Darling test of goodness-of-fit","Null hypothesis: distribution 'distribuicaoFuncao'",2.76369158056775,0.0361456491914256,0.477234068006212,0.572608171454062,NA
"55",1,1,2,"DURACAO - 1 - Com Outlier - 2","pllogis","One-sample Kolmogorov-Smirnov test","two-sided",0.071684275995874,0.000290093941702874,0.700428372997944,0.200453334589202,NA
"56",1,1,2,"DURACAO - 1 - Com Outlier - 2","pllogis","Cramer-von Mises test of goodness-of-fit","Null hypothesis: distribution 'distribuicaoFuncao'",1.01243948609043,0.00229200980195354,0.700428372997944,0.200453334589202,NA
"57",1,1,2,"DURACAO - 1 - Com Outlier - 2","pllogis","Anderson-Darling test of goodness-of-fit","Null hypothesis: distribution 'distribuicaoFuncao'",7.10403842632729,0.000297107699384958,0.700428372997944,0.200453334589202,NA
"58",1,1,2,"DURACAO - 1 - Com Outlier - 2","pgamma","One-sample Kolmogorov-Smirnov test","two-sided",0.0779235594880044,5.82461622690156e-05,0.340845873650836,0.263702793250222,NA
"59",1,1,2,"DURACAO - 1 - Com Outlier - 2","pgamma","Cramer-von Mises test of goodness-of-fit","Null hypothesis: distribution 'distribuicaoFuncao'",1.86652126364227,2.51464895639764e-05,0.340845873650836,0.263702793250222,NA
"60",1,1,2,"DURACAO - 1 - Com Outlier - 2","pgamma","Anderson-Darling test of goodness-of-fit","Null hypothesis: distribution 'distribuicaoFuncao'",11.1502911384952,1.14045670429608e-06,0.340845873650836,0.263702793250222,NA
"61",1,1,2,"DURACAO - 1 - Com Outlier - 2","pcauchy","One-sample Kolmogorov-Smirnov test","two-sided",0.342884839597183,0,0.118594232541929,0.220059234814986,NA
"62",1,1,2,"DURACAO - 1 - Com Outlier - 2","pcauchy","Cramer-von Mises test of goodness-of-fit","Null hypothesis: distribution 'distribuicaoFuncao'",27.5010943849669,0,0.118594232541929,0.220059234814986,NA
"63",1,1,2,"DURACAO - 1 - Com Outlier - 2","pcauchy","Anderson-Darling test of goodness-of-fit","Null hypothesis: distribution 'distribuicaoFuncao'",184.612586402922,6.97674418348448e-07,0.118594232541929,0.220059234814986,NA
"64",1,1,2,"DURACAO - 1 - Com Outlier - 2","pexp","One-sample Kolmogorov-Smirnov test","two-sided",0.340017745417394,0,0.773582384049083,NA,NA
"65",1,1,2,"DURACAO - 1 - Com Outlier - 2","pexp","Cramer-von Mises test of goodness-of-fit","Null hypothesis: distribution 'distribuicaoFuncao'",38.1309156814633,0,0.773582384049083,NA,NA
"66",1,1,2,"DURACAO - 1 - Com Outlier - 2","pexp","Anderson-Darling test of goodness-of-fit","Null hypothesis: distribution 'distribuicaoFuncao'",340.029133151214,6.97674418348448e-07,0.773582384049083,NA,NA
"67",1,1,2,"DURACAO - 1 - Com Outlier - 2","pnorm","One-sample Kolmogorov-Smirnov test","two-sided",0.333488102810866,0,1.29268715377406,3.00367675896363,NA
"68",1,1,2,"DURACAO - 1 - Com Outlier - 2","pnorm","Cramer-von Mises test of goodness-of-fit","Null hypothesis: distribution 'distribuicaoFuncao'",29.7793407492392,0,1.29268715377406,3.00367675896363,NA
"69",1,1,2,"DURACAO - 1 - Com Outlier - 2","pnorm","Anderson-Darling test of goodness-of-fit","Null hypothesis: distribution 'distribuicaoFuncao'",Inf,6.97674418348448e-07,1.29268715377406,3.00367675896363,NA
"70",1,1,2,"DURACAO - 1 - Com Outlier - 2","ptriangle","One-sample Kolmogorov-Smirnov test","two-sided",0.220154076099819,0,-0.641317003655718,2.26808783179899,0.00120123031392393
"71",1,1,2,"DURACAO - 1 - Com Outlier - 2","ptriangle","Cramer-von Mises test of goodness-of-fit","Null hypothesis: distribution 'distribuicaoFuncao'",8.24839615146596,0,-0.641317003655718,2.26808783179899,0.00120123031392393
"72",1,1,2,"DURACAO - 1 - Com Outlier - 2","ptriangle","Anderson-Darling test of goodness-of-fit","Null hypothesis: distribution 'distribuicaoFuncao'",Inf,6.97674418348448e-07,-0.641317003655718,2.26808783179899,0.00120123031392393
"73",1,1,3,"DURACAO - 1 - Com Outlier - 3","plnorm","One-sample Kolmogorov-Smirnov test","two-sided",0.0740920301512846,0.000158617552660334,-1.67277058406403,2.39036260443268,NA
"74",1,1,3,"DURACAO - 1 - Com Outlier - 3","plnorm","Cramer-von Mises test of goodness-of-fit","Null hypothesis: distribution 'distribuicaoFuncao'",1.01424707625729,0.0022697459936234,-1.67277058406403,2.39036260443268,NA
"75",1,1,3,"DURACAO - 1 - Com Outlier - 3","plnorm","Anderson-Darling test of goodness-of-fit","Null hypothesis: distribution 'distribuicaoFuncao'",5.92239769272612,0.00105058067719488,-1.67277058406403,2.39036260443268,NA
"76",1,1,3,"DURACAO - 1 - Com Outlier - 3","pweibull","One-sample Kolmogorov-Smirnov test","two-sided",0.0345799756188538,0.255207518345607,0.487183808567159,0.588946986798957,NA
"77",1,1,3,"DURACAO - 1 - Com Outlier - 3","pweibull","Cramer-von Mises test of goodness-of-fit","Null hypothesis: distribution 'distribuicaoFuncao'",0.18585436104218,0.296669514230989,0.487183808567159,0.588946986798957,NA
"78",1,1,3,"DURACAO - 1 - Com Outlier - 3","pweibull","Anderson-Darling test of goodness-of-fit","Null hypothesis: distribution 'distribuicaoFuncao'",1.66408624870724,0.14173746763801,0.487183808567159,0.588946986798957,NA
"79",1,1,3,"DURACAO - 1 - Com Outlier - 3","pllogis","One-sample Kolmogorov-Smirnov test","two-sided",0.061537661340848,0.00296673607362585,0.718155632168524,0.213927589468925,NA
"80",1,1,3,"DURACAO - 1 - Com Outlier - 3","pllogis","Cramer-von Mises test of goodness-of-fit","Null hypothesis: distribution 'distribuicaoFuncao'",0.816541800224677,0.00666393400483212,0.718155632168524,0.213927589468925,NA
"81",1,1,3,"DURACAO - 1 - Com Outlier - 3","pllogis","Anderson-Darling test of goodness-of-fit","Null hypothesis: distribution 'distribuicaoFuncao'",6.14768896124906,0.000824607804653987,0.718155632168524,0.213927589468925,NA
"82",1,1,3,"DURACAO - 1 - Com Outlier - 3","pgamma","One-sample Kolmogorov-Smirnov test","two-sided",0.0674462299894599,0.000799821167472459,0.349481506435629,0.271679715867903,NA
"83",1,1,3,"DURACAO - 1 - Com Outlier - 3","pgamma","Cramer-von Mises test of goodness-of-fit","Null hypothesis: distribution 'distribuicaoFuncao'",1.76445703717646,4.28086083473778e-05,0.349481506435629,0.271679715867903,NA
"84",1,1,3,"DURACAO - 1 - Com Outlier - 3","pgamma","Anderson-Darling test of goodness-of-fit","Null hypothesis: distribution 'distribuicaoFuncao'",10.3410451789025,4.14487726374535e-06,0.349481506435629,0.271679715867903,NA
"85",1,1,3,"DURACAO - 1 - Com Outlier - 3","pcauchy","One-sample Kolmogorov-Smirnov test","two-sided",0.330039771485835,0,0.137943209518776,0.233033859186214,NA
"86",1,1,3,"DURACAO - 1 - Com Outlier - 3","pcauchy","Cramer-von Mises test of goodness-of-fit","Null hypothesis: distribution 'distribuicaoFuncao'",24.6146027765371,0,0.137943209518776,0.233033859186214,NA
"87",1,1,3,"DURACAO - 1 - Com Outlier - 3","pcauchy","Anderson-Darling test of goodness-of-fit","Null hypothesis: distribution 'distribuicaoFuncao'",164.045986519423,6.97674418348448e-07,0.137943209518776,0.233033859186214,NA
"88",1,1,3,"DURACAO - 1 - Com Outlier - 3","pexp","One-sample Kolmogorov-Smirnov test","two-sided",0.321960485877256,0,0.777318737565952,NA,NA
"89",1,1,3,"DURACAO - 1 - Com Outlier - 3","pexp","Cramer-von Mises test of goodness-of-fit","Null hypothesis: distribution 'distribuicaoFuncao'",37.0723525341985,0,0.777318737565952,NA,NA
"90",1,1,3,"DURACAO - 1 - Com Outlier - 3","pexp","Anderson-Darling test of goodness-of-fit","Null hypothesis: distribution 'distribuicaoFuncao'",314.205720180358,6.97674418348448e-07,0.777318737565952,NA,NA
"91",1,1,3,"DURACAO - 1 - Com Outlier - 3","pnorm","One-sample Kolmogorov-Smirnov test","two-sided",0.33491862869247,0,1.28647356833558,3.01686975667987,NA
"92",1,1,3,"DURACAO - 1 - Com Outlier - 3","pnorm","Cramer-von Mises test of goodness-of-fit","Null hypothesis: distribution 'distribuicaoFuncao'",29.8579654131602,0,1.28647356833558,3.01686975667987,NA
"93",1,1,3,"DURACAO - 1 - Com Outlier - 3","pnorm","Anderson-Darling test of goodness-of-fit","Null hypothesis: distribution 'distribuicaoFuncao'",Inf,6.97674418348448e-07,1.28647356833558,3.01686975667987,NA
"94",1,1,3,"DURACAO - 1 - Com Outlier - 3","ptriangle","One-sample Kolmogorov-Smirnov test","two-sided",0.207423532288822,0,-0.495957900716001,2.09920372175854,-0.0428710534129779
"95",1,1,3,"DURACAO - 1 - Com Outlier - 3","ptriangle","Cramer-von Mises test of goodness-of-fit","Null hypothesis: distribution 'distribuicaoFuncao'",7.7272660881378,0,-0.495957900716001,2.09920372175854,-0.0428710534129779
"96",1,1,3,"DURACAO - 1 - Com Outlier - 3","ptriangle","Anderson-Darling test of goodness-of-fit","Null hypothesis: distribution 'distribuicaoFuncao'",Inf,6.97674418348448e-07,-0.495957900716001,2.09920372175854,-0.0428710534129779
"97",1,2,0,"DURACAO - 1 - Sem Outlier - 0","plnorm","One-sample Kolmogorov-Smirnov test","two-sided",0.0652939777098613,9.7913880441336e-06,-1.71638187737025,2.41154921849899,NA
"98",1,2,0,"DURACAO - 1 - Sem Outlier - 0","plnorm","Cramer-von Mises test of goodness-of-fit","Null hypothesis: distribution 'distribuicaoFuncao'",1.50812324736192,0.000164570507299344,-1.71638187737025,2.41154921849899,NA
"99",1,2,0,"DURACAO - 1 - Sem Outlier - 0","plnorm","Anderson-Darling test of goodness-of-fit","Null hypothesis: distribution 'distribuicaoFuncao'",9.08926807109719,2.9417680264876e-05,-1.71638187737025,2.41154921849899,NA
"100",1,2,0,"DURACAO - 1 - Sem Outlier - 0","pweibull","One-sample Kolmogorov-Smirnov test","two-sided",0.0366136059317838,0.0427845759168245,0.479939196781296,0.572133949842685,NA
"101",1,2,0,"DURACAO - 1 - Sem Outlier - 0","pweibull","Cramer-von Mises test of goodness-of-fit","Null hypothesis: distribution 'distribuicaoFuncao'",0.343915582967541,0.102139265382795,0.479939196781296,0.572133949842685,NA
"102",1,2,0,"DURACAO - 1 - Sem Outlier - 0","pweibull","Anderson-Darling test of goodness-of-fit","Null hypothesis: distribution 'distribuicaoFuncao'",3.1059876624297,0.0241916843736582,0.479939196781296,0.572133949842685,NA
"103",1,2,0,"DURACAO - 1 - Sem Outlier - 0","pllogis","One-sample Kolmogorov-Smirnov test","two-sided",0.0543130399063839,0.000423403853087811,0.709329323480687,0.203032631263619,NA
"104",1,2,0,"DURACAO - 1 - Sem Outlier - 0","pllogis","Cramer-von Mises test of goodness-of-fit","Null hypothesis: distribution 'distribuicaoFuncao'",1.2517231828881,0.000637701446297489,0.709329323480687,0.203032631263619,NA
"105",1,2,0,"DURACAO - 1 - Sem Outlier - 0","pllogis","Anderson-Darling test of goodness-of-fit","Null hypothesis: distribution 'distribuicaoFuncao'",9.66621411023311,1.25849426572122e-05,0.709329323480687,0.203032631263619,NA
"106",1,2,0,"DURACAO - 1 - Sem Outlier - 0","pgamma","One-sample Kolmogorov-Smirnov test","two-sided",0.0710886533789579,1.01505477567709e-06,0.34279164544603,0.266455051362433,NA
"107",1,2,0,"DURACAO - 1 - Sem Outlier - 0","pgamma","Cramer-von Mises test of goodness-of-fit","Null hypothesis: distribution 'distribuicaoFuncao'",3.2510807815174,2.04934132996826e-08,0.34279164544603,0.266455051362433,NA
"108",1,2,0,"DURACAO - 1 - Sem Outlier - 0","pgamma","Anderson-Darling test of goodness-of-fit","Null hypothesis: distribution 'distribuicaoFuncao'",18.6803753979268,4.18410041724826e-07,0.34279164544603,0.266455051362433,NA
"109",1,2,0,"DURACAO - 1 - Sem Outlier - 0","pcauchy","One-sample Kolmogorov-Smirnov test","two-sided",0.332785137889984,0,0.126589759276091,0.218102902110795,NA
"110",1,2,0,"DURACAO - 1 - Sem Outlier - 0","pcauchy","Cramer-von Mises test of goodness-of-fit","Null hypothesis: distribution 'distribuicaoFuncao'",42.3016787903937,0,0.126589759276091,0.218102902110795,NA
"111",1,2,0,"DURACAO - 1 - Sem Outlier - 0","pcauchy","Anderson-Darling test of goodness-of-fit","Null hypothesis: distribution 'distribuicaoFuncao'",285.638157286505,4.18410041724826e-07,0.126589759276091,0.218102902110795,NA
"112",1,2,0,"DURACAO - 1 - Sem Outlier - 0","pexp","One-sample Kolmogorov-Smirnov test","two-sided",0.329372988181229,0,0.777408206337282,NA,NA
"113",1,2,0,"DURACAO - 1 - Sem Outlier - 0","pexp","Cramer-von Mises test of goodness-of-fit","Null hypothesis: distribution 'distribuicaoFuncao'",65.6275101341442,0,0.777408206337282,NA,NA
"114",1,2,0,"DURACAO - 1 - Sem Outlier - 0","pexp","Anderson-Darling test of goodness-of-fit","Null hypothesis: distribution 'distribuicaoFuncao'",558.983214906249,4.18410041724826e-07,0.777408206337282,NA,NA
"115",1,2,0,"DURACAO - 1 - Sem Outlier - 0","pnorm","One-sample Kolmogorov-Smirnov test","two-sided",0.333695595704606,0,1.28632550466846,2.99293806150187,NA
"116",1,2,0,"DURACAO - 1 - Sem Outlier - 0","pnorm","Cramer-von Mises test of goodness-of-fit","Null hypothesis: distribution 'distribuicaoFuncao'",49.9854757022211,0,1.28632550466846,2.99293806150187,NA
"117",1,2,0,"DURACAO - 1 - Sem Outlier - 0","pnorm","Anderson-Darling test of goodness-of-fit","Null hypothesis: distribution 'distribuicaoFuncao'",Inf,4.18410041724826e-07,1.28632550466846,2.99293806150187,NA
"118",1,2,0,"DURACAO - 1 - Sem Outlier - 0","ptriangle","One-sample Kolmogorov-Smirnov test","two-sided",0.20974036245117,0,-0.437590937987259,2.01624119054735,-0.0797937306478983
"119",1,2,0,"DURACAO - 1 - Sem Outlier - 0","ptriangle","Cramer-von Mises test of goodness-of-fit","Null hypothesis: distribution 'distribuicaoFuncao'",13.5042365112422,0,-0.437590937987259,2.01624119054735,-0.0797937306478983
"120",1,2,0,"DURACAO - 1 - Sem Outlier - 0","ptriangle","Anderson-Darling test of goodness-of-fit","Null hypothesis: distribution 'distribuicaoFuncao'",Inf,4.18410041724826e-07,-0.437590937987259,2.01624119054735,-0.0797937306478983
"121",1,2,1,"DURACAO - 1 - Sem Outlier - 1","plnorm","One-sample Kolmogorov-Smirnov test","two-sided",0.070973547534656,0.00034536343077729,-1.74122311843072,2.47475943283986,NA
"122",1,2,1,"DURACAO - 1 - Sem Outlier - 1","plnorm","Cramer-von Mises test of goodness-of-fit","Null hypothesis: distribution 'distribuicaoFuncao'",1.08544257796159,0.00154689806944652,-1.74122311843072,2.47475943283986,NA
"123",1,2,1,"DURACAO - 1 - Sem Outlier - 1","plnorm","Anderson-Darling test of goodness-of-fit","Null hypothesis: distribution 'distribuicaoFuncao'",6.51346753785754,0.000557648722568915,-1.74122311843072,2.47475943283986,NA
"124",1,2,1,"DURACAO - 1 - Sem Outlier - 1","pweibull","One-sample Kolmogorov-Smirnov test","two-sided",0.0464462487963425,0.0489309875417473,0.472394543135451,0.574606954657417,NA
"125",1,2,1,"DURACAO - 1 - Sem Outlier - 1","pweibull","Cramer-von Mises test of goodness-of-fit","Null hypothesis: distribution 'distribuicaoFuncao'",0.329932589733315,0.111555877066526,0.472394543135451,0.574606954657417,NA
"126",1,2,1,"DURACAO - 1 - Sem Outlier - 1","pweibull","Anderson-Darling test of goodness-of-fit","Null hypothesis: distribution 'distribuicaoFuncao'",2.48001696686094,0.0507585451986582,0.472394543135451,0.574606954657417,NA
"127",1,2,1,"DURACAO - 1 - Sem Outlier - 1","pllogis","One-sample Kolmogorov-Smirnov test","two-sided",0.0585385093223004,0.00551173949898132,0.687493849491013,0.199168449912731,NA
"128",1,2,1,"DURACAO - 1 - Sem Outlier - 1","pllogis","Cramer-von Mises test of goodness-of-fit","Null hypothesis: distribution 'distribuicaoFuncao'",0.949817006769975,0.00321711194396979,0.687493849491013,0.199168449912731,NA
"129",1,2,1,"DURACAO - 1 - Sem Outlier - 1","pllogis","Anderson-Darling test of goodness-of-fit","Null hypothesis: distribution 'distribuicaoFuncao'",7.00446873850024,0.000330429065591109,0.687493849491013,0.199168449912731,NA
"130",1,2,1,"DURACAO - 1 - Sem Outlier - 1","pgamma","One-sample Kolmogorov-Smirnov test","two-sided",0.0706661165527752,0.000372223205543865,0.337425550095887,0.259267129028673,NA
"131",1,2,1,"DURACAO - 1 - Sem Outlier - 1","pgamma","Cramer-von Mises test of goodness-of-fit","Null hypothesis: distribution 'distribuicaoFuncao'",1.68560607653858,6.46328685780517e-05,0.337425550095887,0.259267129028673,NA
"132",1,2,1,"DURACAO - 1 - Sem Outlier - 1","pgamma","Anderson-Darling test of goodness-of-fit","Null hypothesis: distribution 'distribuicaoFuncao'",9.92393831911625,8.50047301703682e-06,0.337425550095887,0.259267129028673,NA
"133",1,2,1,"DURACAO - 1 - Sem Outlier - 1","pcauchy","One-sample Kolmogorov-Smirnov test","two-sided",0.341631339560099,0,0.12148123612191,0.22337451909137,NA
"134",1,2,1,"DURACAO - 1 - Sem Outlier - 1","pcauchy","Cramer-von Mises test of goodness-of-fit","Null hypothesis: distribution 'distribuicaoFuncao'",26.831492005478,0,0.12148123612191,0.22337451909137,NA
"135",1,2,1,"DURACAO - 1 - Sem Outlier - 1","pcauchy","Anderson-Darling test of goodness-of-fit","Null hypothesis: distribution 'distribuicaoFuncao'",181.591082218998,6.97674418348448e-07,0.12148123612191,0.22337451909137,NA
"136",1,2,1,"DURACAO - 1 - Sem Outlier - 1","pexp","One-sample Kolmogorov-Smirnov test","two-sided",0.334685036890365,0,0.768305217872508,NA,NA
"137",1,2,1,"DURACAO - 1 - Sem Outlier - 1","pexp","Cramer-von Mises test of goodness-of-fit","Null hypothesis: distribution 'distribuicaoFuncao'",38.4763721602703,0,0.768305217872508,NA,NA
"138",1,2,1,"DURACAO - 1 - Sem Outlier - 1","pexp","Anderson-Darling test of goodness-of-fit","Null hypothesis: distribution 'distribuicaoFuncao'",345.614060937687,6.97674418348448e-07,0.768305217872508,NA,NA
"139",1,2,1,"DURACAO - 1 - Sem Outlier - 1","pnorm","One-sample Kolmogorov-Smirnov test","two-sided",0.327115968389629,0,1.30156607981872,2.90561700523238,NA
"140",1,2,1,"DURACAO - 1 - Sem Outlier - 1","pnorm","Cramer-von Mises test of goodness-of-fit","Null hypothesis: distribution 'distribuicaoFuncao'",28.3345891945228,0,1.30156607981872,2.90561700523238,NA
"141",1,2,1,"DURACAO - 1 - Sem Outlier - 1","pnorm","Anderson-Darling test of goodness-of-fit","Null hypothesis: distribution 'distribuicaoFuncao'",Inf,6.97674418348448e-07,1.30156607981872,2.90561700523238,NA
"142",1,2,1,"DURACAO - 1 - Sem Outlier - 1","ptriangle","One-sample Kolmogorov-Smirnov test","two-sided",0.217421631504164,0,-0.405945812073199,2.17962923120657,-0.167915309996969
"143",1,2,1,"DURACAO - 1 - Sem Outlier - 1","ptriangle","Cramer-von Mises test of goodness-of-fit","Null hypothesis: distribution 'distribuicaoFuncao'",8.67346650395602,0,-0.405945812073199,2.17962923120657,-0.167915309996969
"144",1,2,1,"DURACAO - 1 - Sem Outlier - 1","ptriangle","Anderson-Darling test of goodness-of-fit","Null hypothesis: distribution 'distribuicaoFuncao'",Inf,6.97674418348448e-07,-0.405945812073199,2.17962923120657,-0.167915309996969
"145",1,2,2,"DURACAO - 1 - Sem Outlier - 2","plnorm","One-sample Kolmogorov-Smirnov test","two-sided",0.0727684151295011,0.000221592716140862,-1.67167100516593,2.39154989372367,NA
"146",1,2,2,"DURACAO - 1 - Sem Outlier - 2","plnorm","Cramer-von Mises test of goodness-of-fit","Null hypothesis: distribution 'distribuicaoFuncao'",0.984059528106623,0.00267210759492076,-1.67167100516593,2.39154989372367,NA
"147",1,2,2,"DURACAO - 1 - Sem Outlier - 2","plnorm","Anderson-Darling test of goodness-of-fit","Null hypothesis: distribution 'distribuicaoFuncao'",5.8694123423669,0.00111234263655091,-1.67167100516593,2.39154989372367,NA
"148",1,2,2,"DURACAO - 1 - Sem Outlier - 2","pweibull","One-sample Kolmogorov-Smirnov test","two-sided",0.0373710251434027,0.180913592493413,0.489042351760255,0.589541104155955,NA
"149",1,2,2,"DURACAO - 1 - Sem Outlier - 2","pweibull","Cramer-von Mises test of goodness-of-fit","Null hypothesis: distribution 'distribuicaoFuncao'",0.1990840979651,0.269278599782327,0.489042351760255,0.589541104155955,NA
"150",1,2,2,"DURACAO - 1 - Sem Outlier - 2","pweibull","Anderson-Darling test of goodness-of-fit","Null hypothesis: distribution 'distribuicaoFuncao'",1.65624343928175,0.143212908052951,0.489042351760255,0.589541104155955,NA
"151",1,2,2,"DURACAO - 1 - Sem Outlier - 2","pllogis","One-sample Kolmogorov-Smirnov test","two-sided",0.059491430963271,0.00454226702423921,0.717436802802473,0.214245595834698,NA
"152",1,2,2,"DURACAO - 1 - Sem Outlier - 2","pllogis","Cramer-von Mises test of goodness-of-fit","Null hypothesis: distribution 'distribuicaoFuncao'",0.790797900229134,0.00767990589631651,0.717436802802473,0.214245595834698,NA
"153",1,2,2,"DURACAO - 1 - Sem Outlier - 2","pllogis","Anderson-Darling test of goodness-of-fit","Null hypothesis: distribution 'distribuicaoFuncao'",6.03351559715009,0.000932162699928907,0.717436802802473,0.214245595834698,NA
"154",1,2,2,"DURACAO - 1 - Sem Outlier - 2","pgamma","One-sample Kolmogorov-Smirnov test","two-sided",0.0662093057179861,0.00106288439285585,0.352606987228883,0.279318594845479,NA
"155",1,2,2,"DURACAO - 1 - Sem Outlier - 2","pgamma","Cramer-von Mises test of goodness-of-fit","Null hypothesis: distribution 'distribuicaoFuncao'",1.67305534265706,6.90190408494384e-05,0.352606987228883,0.279318594845479,NA
"156",1,2,2,"DURACAO - 1 - Sem Outlier - 2","pgamma","Anderson-Darling test of goodness-of-fit","Null hypothesis: distribution 'distribuicaoFuncao'",9.64542391840826,1.32893910761434e-05,0.352606987228883,0.279318594845479,NA
"157",1,2,2,"DURACAO - 1 - Sem Outlier - 2","pcauchy","One-sample Kolmogorov-Smirnov test","two-sided",0.330712879177585,0,0.137752792269847,0.233839098758159,NA
"158",1,2,2,"DURACAO - 1 - Sem Outlier - 2","pcauchy","Cramer-von Mises test of goodness-of-fit","Null hypothesis: distribution 'distribuicaoFuncao'",24.6911727572545,0,0.137752792269847,0.233839098758159,NA
"159",1,2,2,"DURACAO - 1 - Sem Outlier - 2","pcauchy","Anderson-Darling test of goodness-of-fit","Null hypothesis: distribution 'distribuicaoFuncao'",164.618893762682,6.97674418348448e-07,0.137752792269847,0.233839098758159,NA
"160",1,2,2,"DURACAO - 1 - Sem Outlier - 2","pexp","One-sample Kolmogorov-Smirnov test","two-sided",0.319753901373987,0,0.792196128170256,NA,NA
"161",1,2,2,"DURACAO - 1 - Sem Outlier - 2","pexp","Cramer-von Mises test of goodness-of-fit","Null hypothesis: distribution 'distribuicaoFuncao'",36.1783656676762,0,0.792196128170256,NA,NA
"162",1,2,2,"DURACAO - 1 - Sem Outlier - 2","pexp","Anderson-Darling test of goodness-of-fit","Null hypothesis: distribution 'distribuicaoFuncao'",308.288959453517,6.97674418348448e-07,0.792196128170256,NA,NA
"163",1,2,2,"DURACAO - 1 - Sem Outlier - 2","pnorm","One-sample Kolmogorov-Smirnov test","two-sided",0.326699502376445,0,1.26231366994058,2.81073447464498,NA
"164",1,2,2,"DURACAO - 1 - Sem Outlier - 2","pnorm","Cramer-von Mises test of goodness-of-fit","Null hypothesis: distribution 'distribuicaoFuncao'",28.5691663059661,0,1.26231366994058,2.81073447464498,NA
"165",1,2,2,"DURACAO - 1 - Sem Outlier - 2","pnorm","Anderson-Darling test of goodness-of-fit","Null hypothesis: distribution 'distribuicaoFuncao'",Inf,6.97674418348448e-07,1.26231366994058,2.81073447464498,NA
"166",1,2,2,"DURACAO - 1 - Sem Outlier - 2","ptriangle","One-sample Kolmogorov-Smirnov test","two-sided",0.208302740136485,0,-0.309581534383218,2.11032885551953,-0.213869810724237
"167",1,2,2,"DURACAO - 1 - Sem Outlier - 2","ptriangle","Cramer-von Mises test of goodness-of-fit","Null hypothesis: distribution 'distribuicaoFuncao'",7.83178895245901,0,-0.309581534383218,2.11032885551953,-0.213869810724237
"168",1,2,2,"DURACAO - 1 - Sem Outlier - 2","ptriangle","Anderson-Darling test of goodness-of-fit","Null hypothesis: distribution 'distribuicaoFuncao'",Inf,6.97674418348448e-07,-0.309581534383218,2.11032885551953,-0.213869810724237
"169",1,2,3,"DURACAO - 1 - Sem Outlier - 3","plnorm","One-sample Kolmogorov-Smirnov test","two-sided",0.0605570448678395,0.00364513965374769,-1.77818908320807,2.44274913973478,NA
"170",1,2,3,"DURACAO - 1 - Sem Outlier - 3","plnorm","Cramer-von Mises test of goodness-of-fit","Null hypothesis: distribution 'distribuicaoFuncao'",0.947900912891562,0.00325075337631286,-1.77818908320807,2.44274913973478,NA
"171",1,2,3,"DURACAO - 1 - Sem Outlier - 3","plnorm","Anderson-Darling test of goodness-of-fit","Null hypothesis: distribution 'distribuicaoFuncao'",5.53339889089455,0.00160050358917252,-1.77818908320807,2.44274913973478,NA
"172",1,2,3,"DURACAO - 1 - Sem Outlier - 3","pweibull","One-sample Kolmogorov-Smirnov test","two-sided",0.0393210446004723,0.139936799657176,0.469237229512934,0.548776848861337,NA
"173",1,2,3,"DURACAO - 1 - Sem Outlier - 3","pweibull","Cramer-von Mises test of goodness-of-fit","Null hypothesis: distribution 'distribuicaoFuncao'",0.231655608565543,0.213704009820672,0.469237229512934,0.548776848861337,NA
"174",1,2,3,"DURACAO - 1 - Sem Outlier - 3","pweibull","Anderson-Darling test of goodness-of-fit","Null hypothesis: distribution 'distribuicaoFuncao'",2.2922079795112,0.0638206043176844,0.469237229512934,0.548776848861337,NA
"175",1,2,3,"DURACAO - 1 - Sem Outlier - 3","pllogis","One-sample Kolmogorov-Smirnov test","two-sided",0.0542109259195483,0.0127575605327782,0.697804879260468,0.189574738150424,NA
"176",1,2,3,"DURACAO - 1 - Sem Outlier - 3","pllogis","Cramer-von Mises test of goodness-of-fit","Null hypothesis: distribution 'distribuicaoFuncao'",0.81915876841491,0.00656866288095637,0.697804879260468,0.189574738150424,NA
"177",1,2,3,"DURACAO - 1 - Sem Outlier - 3","pllogis","Anderson-Darling test of goodness-of-fit","Null hypothesis: distribution 'distribuicaoFuncao'",6.08960595508313,0.000877645997359067,0.697804879260468,0.189574738150424,NA
"178",1,2,3,"DURACAO - 1 - Sem Outlier - 3","pgamma","One-sample Kolmogorov-Smirnov test","two-sided",0.0821884953161126,1.79959344288605e-05,0.331566864848087,0.253662669565034,NA
"179",1,2,3,"DURACAO - 1 - Sem Outlier - 3","pgamma","Cramer-von Mises test of goodness-of-fit","Null hypothesis: distribution 'distribuicaoFuncao'",2.2505922345496,3.43145777359499e-06,0.331566864848087,0.253662669565034,NA
"180",1,2,3,"DURACAO - 1 - Sem Outlier - 3","pgamma","Anderson-Darling test of goodness-of-fit","Null hypothesis: distribution 'distribuicaoFuncao'",13.1830030199775,6.976936457459e-07,0.331566864848087,0.253662669565034,NA
"181",1,2,3,"DURACAO - 1 - Sem Outlier - 3","pcauchy","One-sample Kolmogorov-Smirnov test","two-sided",0.332690567191306,0,0.121641044148207,0.209364567916334,NA
"182",1,2,3,"DURACAO - 1 - Sem Outlier - 3","pcauchy","Cramer-von Mises test of goodness-of-fit","Null hypothesis: distribution 'distribuicaoFuncao'",24.8934823001379,0,0.121641044148207,0.209364567916334,NA
"183",1,2,3,"DURACAO - 1 - Sem Outlier - 3","pcauchy","Anderson-Darling test of goodness-of-fit","Null hypothesis: distribution 'distribuicaoFuncao'",168.758763970234,6.97674418348448e-07,0.121641044148207,0.209364567916334,NA
"184",1,2,3,"DURACAO - 1 - Sem Outlier - 3","pexp","One-sample Kolmogorov-Smirnov test","two-sided",0.337516459767504,0,0.764982269355213,NA,NA
"185",1,2,3,"DURACAO - 1 - Sem Outlier - 3","pexp","Cramer-von Mises test of goodness-of-fit","Null hypothesis: distribution 'distribuicaoFuncao'",42.815908143417,0,0.764982269355213,NA,NA
"186",1,2,3,"DURACAO - 1 - Sem Outlier - 3","pexp","Anderson-Darling test of goodness-of-fit","Null hypothesis: distribution 'distribuicaoFuncao'",368.11635151688,6.97674418348448e-07,0.764982269355213,NA,NA
"187",1,2,3,"DURACAO - 1 - Sem Outlier - 3","pnorm","One-sample Kolmogorov-Smirnov test","two-sided",0.338424782351141,0,1.30721985433418,3.13609991110578,NA
"188",1,2,3,"DURACAO - 1 - Sem Outlier - 3","pnorm","Cramer-von Mises test of goodness-of-fit","Null hypothesis: distribution 'distribuicaoFuncao'",31.7318593007409,0,1.30721985433418,3.13609991110578,NA
"189",1,2,3,"DURACAO - 1 - Sem Outlier - 3","pnorm","Anderson-Darling test of goodness-of-fit","Null hypothesis: distribution 'distribuicaoFuncao'",Inf,6.97674418348448e-07,1.30721985433418,3.13609991110578,NA
"190",1,2,3,"DURACAO - 1 - Sem Outlier - 3","ptriangle","One-sample Kolmogorov-Smirnov test","two-sided",0.211421376828524,0,-0.387990281852271,1.91729914180463,-0.104410059760837
"191",1,2,3,"DURACAO - 1 - Sem Outlier - 3","ptriangle","Cramer-von Mises test of goodness-of-fit","Null hypothesis: distribution 'distribuicaoFuncao'",8.36680082777261,0,-0.387990281852271,1.91729914180463,-0.104410059760837
"192",1,2,3,"DURACAO - 1 - Sem Outlier - 3","ptriangle","Anderson-Darling test of goodness-of-fit","Null hypothesis: distribution 'distribuicaoFuncao'",Inf,6.97674418348448e-07,-0.387990281852271,1.91729914180463,-0.104410059760837
"193",2,1,0,"DURACAO - 2 - Com Outlier - 0","plnorm","One-sample Kolmogorov-Smirnov test","two-sided",0.0702158111217988,0.0137541335601404,-1.63659824002731,2.56741710405753,NA
"194",2,1,0,"DURACAO - 2 - Com Outlier - 0","plnorm","Cramer-von Mises test of goodness-of-fit","Null hypothesis: distribution 'distribuicaoFuncao'",0.606140580826072,0.0215742666157772,-1.63659824002731,2.56741710405753,NA
"195",2,1,0,"DURACAO - 2 - Com Outlier - 0","plnorm","Anderson-Darling test of goodness-of-fit","Null hypothesis: distribution 'distribuicaoFuncao'",3.76626858136586,0.0113612845666039,-1.63659824002731,2.56741710405753,NA
"196",2,1,0,"DURACAO - 2 - Com Outlier - 0","pweibull","One-sample Kolmogorov-Smirnov test","two-sided",0.0520116579904664,0.13010765118363,0.454221519504606,0.669486601682226,NA
"197",2,1,0,"DURACAO - 2 - Com Outlier - 0","pweibull","Cramer-von Mises test of goodness-of-fit","Null hypothesis: distribution 'distribuicaoFuncao'",0.204459586228432,0.259036807902851,0.454221519504606,0.669486601682226,NA
"198",2,1,0,"DURACAO - 2 - Com Outlier - 0","pweibull","Anderson-Darling test of goodness-of-fit","Null hypothesis: distribution 'distribuicaoFuncao'",1.66637936739096,0.141315729930927,0.454221519504606,0.669486601682226,NA
"199",2,1,0,"DURACAO - 2 - Com Outlier - 0","pllogis","One-sample Kolmogorov-Smirnov test","two-sided",0.052755637813967,0.120264798590387,0.660959419493859,0.220793769712825,NA
"200",2,1,0,"DURACAO - 2 - Com Outlier - 0","pllogis","Cramer-von Mises test of goodness-of-fit","Null hypothesis: distribution 'distribuicaoFuncao'",0.518908610392968,0.0356343163650689,0.660959419493859,0.220793769712825,NA
"201",2,1,0,"DURACAO - 2 - Com Outlier - 0","pllogis","Anderson-Darling test of goodness-of-fit","Null hypothesis: distribution 'distribuicaoFuncao'",4.01154283303043,0.00861473031799709,0.660959419493859,0.220793769712825,NA
"202",2,1,0,"DURACAO - 2 - Com Outlier - 0","pgamma","One-sample Kolmogorov-Smirnov test","two-sided",0.0824048060216699,0.00210106609954208,0.321542204606695,0.198225005061495,NA
"203",2,1,0,"DURACAO - 2 - Com Outlier - 0","pgamma","Cramer-von Mises test of goodness-of-fit","Null hypothesis: distribution 'distribuicaoFuncao'",1.14202854952879,0.00113804617482605,0.321542204606695,0.198225005061495,NA
"204",2,1,0,"DURACAO - 2 - Com Outlier - 0","pgamma","Anderson-Darling test of goodness-of-fit","Null hypothesis: distribution 'distribuicaoFuncao'",6.5604146936281,0.00053110598119066,0.321542204606695,0.198225005061495,NA
"205",2,1,0,"DURACAO - 2 - Com Outlier - 0","pcauchy","One-sample Kolmogorov-Smirnov test","two-sided",0.34186232568888,0,0.137203279186683,0.252145602987252,NA
"206",2,1,0,"DURACAO - 2 - Com Outlier - 0","pcauchy","Cramer-von Mises test of goodness-of-fit","Null hypothesis: distribution 'distribuicaoFuncao'",15.5340898253754,0,0.137203279186683,0.252145602987252,NA
"207",2,1,0,"DURACAO - 2 - Com Outlier - 0","pcauchy","Anderson-Darling test of goodness-of-fit","Null hypothesis: distribution 'distribuicaoFuncao'",107.793547666799,1.188118811557e-06,0.137203279186683,0.252145602987252,NA
"208",2,1,0,"DURACAO - 2 - Com Outlier - 0","pexp","One-sample Kolmogorov-Smirnov test","two-sided",0.345107295434743,0,0.616588686547903,NA,NA
"209",2,1,0,"DURACAO - 2 - Com Outlier - 0","pexp","Cramer-von Mises test of goodness-of-fit","Null hypothesis: distribution 'distribuicaoFuncao'",25.4795650953706,0,0.616588686547903,NA,NA
"210",2,1,0,"DURACAO - 2 - Com Outlier - 0","pexp","Anderson-Darling test of goodness-of-fit","Null hypothesis: distribution 'distribuicaoFuncao'",232.032779563119,1.188118811557e-06,0.616588686547903,NA,NA
"211",2,1,0,"DURACAO - 2 - Com Outlier - 0","pnorm","One-sample Kolmogorov-Smirnov test","two-sided",0.318600544100522,0,1.62182673267327,3.43781300662111,NA
"212",2,1,0,"DURACAO - 2 - Com Outlier - 0","pnorm","Cramer-von Mises test of goodness-of-fit","Null hypothesis: distribution 'distribuicaoFuncao'",16.7046587195859,0,1.62182673267327,3.43781300662111,NA
"213",2,1,0,"DURACAO - 2 - Com Outlier - 0","pnorm","Anderson-Darling test of goodness-of-fit","Null hypothesis: distribution 'distribuicaoFuncao'",84.7923925329293,1.188118811557e-06,1.62182673267327,3.43781300662111,NA
"214",2,1,0,"DURACAO - 2 - Com Outlier - 0","ptriangle","One-sample Kolmogorov-Smirnov test","two-sided",0.213732396088194,0,-0.461758232681935,2.28751648937754,-0.132119695810646
"215",2,1,0,"DURACAO - 2 - Com Outlier - 0","ptriangle","Cramer-von Mises test of goodness-of-fit","Null hypothesis: distribution 'distribuicaoFuncao'",5.60655756341785,0,-0.461758232681935,2.28751648937754,-0.132119695810646
"216",2,1,0,"DURACAO - 2 - Com Outlier - 0","ptriangle","Anderson-Darling test of goodness-of-fit","Null hypothesis: distribution 'distribuicaoFuncao'",Inf,1.188118811557e-06,-0.461758232681935,2.28751648937754,-0.132119695810646
"217",2,1,1,"DURACAO - 2 - Com Outlier - 1","plnorm","One-sample Kolmogorov-Smirnov test","two-sided",0.0726684641507288,0.0725714437382914,-1.48124284615923,2.59164850366946,NA
"218",2,1,1,"DURACAO - 2 - Com Outlier - 1","plnorm","Cramer-von Mises test of goodness-of-fit","Null hypothesis: distribution 'distribuicaoFuncao'",0.397337895269399,0.0733690890134259,-1.48124284615923,2.59164850366946,NA
"219",2,1,1,"DURACAO - 2 - Com Outlier - 1","plnorm","Anderson-Darling test of goodness-of-fit","Null hypothesis: distribution 'distribuicaoFuncao'",2.46186341699047,0.0519115807145472,-1.48124284615923,2.59164850366946,NA
"220",2,1,1,"DURACAO - 2 - Com Outlier - 1","pweibull","One-sample Kolmogorov-Smirnov test","two-sided",0.0447090945110536,0.556806551191362,0.455177420932501,0.78470060699826,NA
"221",2,1,1,"DURACAO - 2 - Com Outlier - 1","pweibull","Cramer-von Mises test of goodness-of-fit","Null hypothesis: distribution 'distribuicaoFuncao'",0.0985577486116646,0.59228539286193,0.455177420932501,0.78470060699826,NA
"222",2,1,1,"DURACAO - 2 - Com Outlier - 1","pweibull","Anderson-Darling test of goodness-of-fit","Null hypothesis: distribution 'distribuicaoFuncao'",0.856899962115335,0.441659231894871,0.455177420932501,0.78470060699826,NA
"223",2,1,1,"DURACAO - 2 - Com Outlier - 1","pllogis","One-sample Kolmogorov-Smirnov test","two-sided",0.0608441439734585,0.195410893486174,0.659463717207545,0.262819037137772,NA
"224",2,1,1,"DURACAO - 2 - Com Outlier - 1","pllogis","Cramer-von Mises test of goodness-of-fit","Null hypothesis: distribution 'distribuicaoFuncao'",0.302098578945199,0.133321693750771,0.659463717207545,0.262819037137772,NA
"225",2,1,1,"DURACAO - 2 - Com Outlier - 1","pllogis","Anderson-Darling test of goodness-of-fit","Null hypothesis: distribution 'distribuicaoFuncao'",2.45985039986465,0.0520383062577717,0.659463717207545,0.262819037137772,NA
"226",2,1,1,"DURACAO - 2 - Com Outlier - 1","pgamma","One-sample Kolmogorov-Smirnov test","two-sided",0.0832690849202731,0.0257005219594268,0.322651880481,0.171799345536694,NA
"227",2,1,1,"DURACAO - 2 - Com Outlier - 1","pgamma","Cramer-von Mises test of goodness-of-fit","Null hypothesis: distribution 'distribuicaoFuncao'",0.652797855933787,0.0165392252042218,0.322651880481,0.171799345536694,NA
"228",2,1,1,"DURACAO - 2 - Com Outlier - 1","pgamma","Anderson-Darling test of goodness-of-fit","Null hypothesis: distribution 'distribuicaoFuncao'",3.77147585517008,0.011300712269932,0.322651880481,0.171799345536694,NA
"229",2,1,1,"DURACAO - 2 - Com Outlier - 1","pcauchy","One-sample Kolmogorov-Smirnov test","two-sided",0.337469265825953,0,0.164828967475195,0.293364039630098,NA
"230",2,1,1,"DURACAO - 2 - Com Outlier - 1","pcauchy","Cramer-von Mises test of goodness-of-fit","Null hypothesis: distribution 'distribuicaoFuncao'",9.47010126549517,0,0.164828967475195,0.293364039630098,NA
"231",2,1,1,"DURACAO - 2 - Com Outlier - 1","pcauchy","Anderson-Darling test of goodness-of-fit","Null hypothesis: distribution 'distribuicaoFuncao'",66.1406837433373,1.91082802492026e-06,0.164828967475195,0.293364039630098,NA
"232",2,1,1,"DURACAO - 2 - Com Outlier - 1","pexp","One-sample Kolmogorov-Smirnov test","two-sided",0.350243906794902,0,0.532308507085834,NA,NA
"233",2,1,1,"DURACAO - 2 - Com Outlier - 1","pexp","Cramer-von Mises test of goodness-of-fit","Null hypothesis: distribution 'distribuicaoFuncao'",15.5460783676732,0,0.532308507085834,NA,NA
"234",2,1,1,"DURACAO - 2 - Com Outlier - 1","pexp","Anderson-Darling test of goodness-of-fit","Null hypothesis: distribution 'distribuicaoFuncao'",140.780050092264,1.91082802492026e-06,0.532308507085834,NA,NA
"235",2,1,1,"DURACAO - 2 - Com Outlier - 1","pnorm","One-sample Kolmogorov-Smirnov test","two-sided",0.314459008286088,0,1.87860987261147,3.88641213543995,NA
"236",2,1,1,"DURACAO - 2 - Com Outlier - 1","pnorm","Cramer-von Mises test of goodness-of-fit","Null hypothesis: distribution 'distribuicaoFuncao'",10.3850586780215,0,1.87860987261147,3.88641213543995,NA
"237",2,1,1,"DURACAO - 2 - Com Outlier - 1","pnorm","Anderson-Darling test of goodness-of-fit","Null hypothesis: distribution 'distribuicaoFuncao'",52.9187224627231,1.91082802492026e-06,1.87860987261147,3.88641213543995,NA
"238",2,1,1,"DURACAO - 2 - Com Outlier - 1","ptriangle","One-sample Kolmogorov-Smirnov test","two-sided",0.213335138324522,7.73159314348959e-13,-0.627342540581542,2.65349059416962,-0.0672100012764076
"239",2,1,1,"DURACAO - 2 - Com Outlier - 1","ptriangle","Cramer-von Mises test of goodness-of-fit","Null hypothesis: distribution 'distribuicaoFuncao'",3.50800994541929,4.86058782112053e-09,-0.627342540581542,2.65349059416962,-0.0672100012764076
"240",2,1,1,"DURACAO - 2 - Com Outlier - 1","ptriangle","Anderson-Darling test of goodness-of-fit","Null hypothesis: distribution 'distribuicaoFuncao'",Inf,1.91082802492026e-06,-0.627342540581542,2.65349059416962,-0.0672100012764076
"241",2,1,2,"DURACAO - 2 - Com Outlier - 2","plnorm","One-sample Kolmogorov-Smirnov test","two-sided",0.0837216661108467,0.0245092183710292,-1.53690135524219,2.59129737443681,NA
"242",2,1,2,"DURACAO - 2 - Com Outlier - 2","plnorm","Cramer-von Mises test of goodness-of-fit","Null hypothesis: distribution 'distribuicaoFuncao'",0.502304664292946,0.0392322999035037,-1.53690135524219,2.59129737443681,NA
"243",2,1,2,"DURACAO - 2 - Com Outlier - 2","plnorm","Anderson-Darling test of goodness-of-fit","Null hypothesis: distribution 'distribuicaoFuncao'",3.0515568220718,0.0257954849491066,-1.53690135524219,2.59129737443681,NA
"244",2,1,2,"DURACAO - 2 - Com Outlier - 2","pweibull","One-sample Kolmogorov-Smirnov test","two-sided",0.051637080299456,0.372345326021439,0.45667321640985,0.744243874618277,NA
"245",2,1,2,"DURACAO - 2 - Com Outlier - 2","pweibull","Cramer-von Mises test of goodness-of-fit","Null hypothesis: distribution 'distribuicaoFuncao'",0.139419080804306,0.423677606708187,0.45667321640985,0.744243874618277,NA
"246",2,1,2,"DURACAO - 2 - Com Outlier - 2","pweibull","Anderson-Darling test of goodness-of-fit","Null hypothesis: distribution 'distribuicaoFuncao'",1.13330626239457,0.294284523548093,0.45667321640985,0.744243874618277,NA
"247",2,1,2,"DURACAO - 2 - Com Outlier - 2","pllogis","One-sample Kolmogorov-Smirnov test","two-sided",0.06518514495577,0.138674846253772,0.654797764105441,0.249042323884454,NA
"248",2,1,2,"DURACAO - 2 - Com Outlier - 2","pllogis","Cramer-von Mises test of goodness-of-fit","Null hypothesis: distribution 'distribuicaoFuncao'",0.402290244960571,0.0711893891010128,0.654797764105441,0.249042323884454,NA
"249",2,1,2,"DURACAO - 2 - Com Outlier - 2","pllogis","Anderson-Darling test of goodness-of-fit","Null hypothesis: distribution 'distribuicaoFuncao'",3.08739599298718,0.0247420935863877,0.654797764105441,0.249042323884454,NA
"250",2,1,2,"DURACAO - 2 - Com Outlier - 2","pgamma","One-sample Kolmogorov-Smirnov test","two-sided",0.0750018707494511,0.0584517289380635,0.324869272996189,0.185900022626926,NA
"251",2,1,2,"DURACAO - 2 - Com Outlier - 2","pgamma","Cramer-von Mises test of goodness-of-fit","Null hypothesis: distribution 'distribuicaoFuncao'",0.571568676853534,0.026262585130957,0.324869272996189,0.185900022626926,NA
"252",2,1,2,"DURACAO - 2 - Com Outlier - 2","pgamma","Anderson-Darling test of goodness-of-fit","Null hypothesis: distribution 'distribuicaoFuncao'",3.4324261667428,0.0166212344832204,0.324869272996189,0.185900022626926,NA
"253",2,1,2,"DURACAO - 2 - Com Outlier - 2","pcauchy","One-sample Kolmogorov-Smirnov test","two-sided",0.339074275681998,0,0.165028152047729,0.297224758821452,NA
"254",2,1,2,"DURACAO - 2 - Com Outlier - 2","pcauchy","Cramer-von Mises test of goodness-of-fit","Null hypothesis: distribution 'distribuicaoFuncao'",9.30555093428356,0,0.165028152047729,0.297224758821452,NA
"255",2,1,2,"DURACAO - 2 - Com Outlier - 2","pcauchy","Anderson-Darling test of goodness-of-fit","Null hypothesis: distribution 'distribuicaoFuncao'",64.0254423325615,1.91082802492026e-06,0.165028152047729,0.297224758821452,NA
"256",2,1,2,"DURACAO - 2 - Com Outlier - 2","pexp","One-sample Kolmogorov-Smirnov test","two-sided",0.33475334262772,0,0.572275275197321,NA,NA
"257",2,1,2,"DURACAO - 2 - Com Outlier - 2","pexp","Cramer-von Mises test of goodness-of-fit","Null hypothesis: distribution 'distribuicaoFuncao'",14.7307423961292,0,0.572275275197321,NA,NA
"258",2,1,2,"DURACAO - 2 - Com Outlier - 2","pexp","Anderson-Darling test of goodness-of-fit","Null hypothesis: distribution 'distribuicaoFuncao'",137.499707163477,1.91082802492026e-06,0.572275275197321,NA,NA
"259",2,1,2,"DURACAO - 2 - Com Outlier - 2","pnorm","One-sample Kolmogorov-Smirnov test","two-sided",0.312864519770079,0,1.74741082802548,3.58159197892688,NA
"260",2,1,2,"DURACAO - 2 - Com Outlier - 2","pnorm","Cramer-von Mises test of goodness-of-fit","Null hypothesis: distribution 'distribuicaoFuncao'",9.95992602714565,0,1.74741082802548,3.58159197892688,NA
"261",2,1,2,"DURACAO - 2 - Com Outlier - 2","pnorm","Anderson-Darling test of goodness-of-fit","Null hypothesis: distribution 'distribuicaoFuncao'",50.7471216853722,1.91082802492026e-06,1.74741082802548,3.58159197892688,NA
"262",2,1,2,"DURACAO - 2 - Com Outlier - 2","ptriangle","One-sample Kolmogorov-Smirnov test","two-sided",0.21279764963898,8.92730334101088e-13,-0.497652402556818,2.62563094992142,-0.177246929573316
"263",2,1,2,"DURACAO - 2 - Com Outlier - 2","ptriangle","Cramer-von Mises test of goodness-of-fit","Null hypothesis: distribution 'distribuicaoFuncao'",3.44261412740011,6.81890655052086e-09,-0.497652402556818,2.62563094992142,-0.177246929573316
"264",2,1,2,"DURACAO - 2 - Com Outlier - 2","ptriangle","Anderson-Darling test of goodness-of-fit","Null hypothesis: distribution 'distribuicaoFuncao'",Inf,1.91082802492026e-06,-0.497652402556818,2.62563094992142,-0.177246929573316
"265",2,1,3,"DURACAO - 2 - Com Outlier - 3","plnorm","One-sample Kolmogorov-Smirnov test","two-sided",0.0758177746293127,0.0541050924420881,-1.50570423895831,2.56757390968349,NA
"266",2,1,3,"DURACAO - 2 - Com Outlier - 3","plnorm","Cramer-von Mises test of goodness-of-fit","Null hypothesis: distribution 'distribuicaoFuncao'",0.340076378659695,0.104602845163607,-1.50570423895831,2.56757390968349,NA
"267",2,1,3,"DURACAO - 2 - Com Outlier - 3","plnorm","Anderson-Darling test of goodness-of-fit","Null hypothesis: distribution 'distribuicaoFuncao'",2.21500786317284,0.0702227830866869,-1.50570423895831,2.56757390968349,NA
"268",2,1,3,"DURACAO - 2 - Com Outlier - 3","pweibull","One-sample Kolmogorov-Smirnov test","two-sided",0.0493453719059838,0.429027713187756,0.45621885542273,0.759926765469582,NA
"269",2,1,3,"DURACAO - 2 - Com Outlier - 3","pweibull","Cramer-von Mises test of goodness-of-fit","Null hypothesis: distribution 'distribuicaoFuncao'",0.106761400996484,0.553005195711195,0.45621885542273,0.759926765469582,NA
"270",2,1,3,"DURACAO - 2 - Com Outlier - 3","pweibull","Anderson-Darling test of goodness-of-fit","Null hypothesis: distribution 'distribuicaoFuncao'",0.892602629410305,0.418747732211037,0.45621885542273,0.759926765469582,NA
"271",2,1,3,"DURACAO - 2 - Com Outlier - 3","pllogis","One-sample Kolmogorov-Smirnov test","two-sided",0.0543284944716634,0.31215702796434,0.66488043826332,0.253434802499206,NA
"272",2,1,3,"DURACAO - 2 - Com Outlier - 3","pllogis","Cramer-von Mises test of goodness-of-fit","Null hypothesis: distribution 'distribuicaoFuncao'",0.266299212445289,0.168755875901887,0.66488043826332,0.253434802499206,NA
"273",2,1,3,"DURACAO - 2 - Com Outlier - 3","pllogis","Anderson-Darling test of goodness-of-fit","Null hypothesis: distribution 'distribuicaoFuncao'",2.23966645409712,0.0681148926249806,0.66488043826332,0.253434802499206,NA
"274",2,1,3,"DURACAO - 2 - Com Outlier - 3","pgamma","One-sample Kolmogorov-Smirnov test","two-sided",0.0878617086763054,0.0156887364307743,0.323568706724232,0.177733815353933,NA
"275",2,1,3,"DURACAO - 2 - Com Outlier - 3","pgamma","Cramer-von Mises test of goodness-of-fit","Null hypothesis: distribution 'distribuicaoFuncao'",0.720523665747784,0.0113074645072905,0.323568706724232,0.177733815353933,NA
"276",2,1,3,"DURACAO - 2 - Com Outlier - 3","pgamma","Anderson-Darling test of goodness-of-fit","Null hypothesis: distribution 'distribuicaoFuncao'",4.03076937820953,0.00843547938124822,0.323568706724232,0.177733815353933,NA
"277",2,1,3,"DURACAO - 2 - Com Outlier - 3","pcauchy","One-sample Kolmogorov-Smirnov test","two-sided",0.336759370068509,0,0.156621924433738,0.277260553530753,NA
"278",2,1,3,"DURACAO - 2 - Com Outlier - 3","pcauchy","Cramer-von Mises test of goodness-of-fit","Null hypothesis: distribution 'distribuicaoFuncao'",9.46087669005975,0,0.156621924433738,0.277260553530753,NA
"279",2,1,3,"DURACAO - 2 - Com Outlier - 3","pcauchy","Anderson-Darling test of goodness-of-fit","Null hypothesis: distribution 'distribuicaoFuncao'",66.5543525587415,1.91082802492026e-06,0.156621924433738,0.277260553530753,NA
"280",2,1,3,"DURACAO - 2 - Com Outlier - 3","pexp","One-sample Kolmogorov-Smirnov test","two-sided",0.35103262724112,0,0.549294839994578,NA,NA
"281",2,1,3,"DURACAO - 2 - Com Outlier - 3","pexp","Cramer-von Mises test of goodness-of-fit","Null hypothesis: distribution 'distribuicaoFuncao'",15.9388304797193,0,0.549294839994578,NA,NA
"282",2,1,3,"DURACAO - 2 - Com Outlier - 3","pexp","Anderson-Darling test of goodness-of-fit","Null hypothesis: distribution 'distribuicaoFuncao'",141.911814569041,1.91082802492026e-06,0.549294839994578,NA,NA
"283",2,1,3,"DURACAO - 2 - Com Outlier - 3","pnorm","One-sample Kolmogorov-Smirnov test","two-sided",0.314903104440674,0,1.82051592356688,3.77596954243744,NA
"284",2,1,3,"DURACAO - 2 - Com Outlier - 3","pnorm","Cramer-von Mises test of goodness-of-fit","Null hypothesis: distribution 'distribuicaoFuncao'",10.317247496963,0,1.82051592356688,3.77596954243744,NA
"285",2,1,3,"DURACAO - 2 - Com Outlier - 3","pnorm","Anderson-Darling test of goodness-of-fit","Null hypothesis: distribution 'distribuicaoFuncao'",52.5864932471525,1.91082802492026e-06,1.82051592356688,3.77596954243744,NA
"286",2,1,3,"DURACAO - 2 - Com Outlier - 3","ptriangle","One-sample Kolmogorov-Smirnov test","two-sided",0.221002610894809,9.54791801177635e-14,-0.303638239898678,2.39960235683118,-0.284779860079962
"287",2,1,3,"DURACAO - 2 - Com Outlier - 3","ptriangle","Cramer-von Mises test of goodness-of-fit","Null hypothesis: distribution 'distribuicaoFuncao'",3.52317122166478,4.49367776322873e-09,-0.303638239898678,2.39960235683118,-0.284779860079962
"288",2,1,3,"DURACAO - 2 - Com Outlier - 3","ptriangle","Anderson-Darling test of goodness-of-fit","Null hypothesis: distribution 'distribuicaoFuncao'",Inf,1.91082802492026e-06,-0.303638239898678,2.39960235683118,-0.284779860079962
"289",2,2,0,"DURACAO - 2 - Sem Outlier - 0","plnorm","One-sample Kolmogorov-Smirnov test","two-sided",0.0702158111217988,0.0137541335601404,-1.63659824002731,2.56741710405753,NA
"290",2,2,0,"DURACAO - 2 - Sem Outlier - 0","plnorm","Cramer-von Mises test of goodness-of-fit","Null hypothesis: distribution 'distribuicaoFuncao'",0.606140580826072,0.0215742666157772,-1.63659824002731,2.56741710405753,NA
"291",2,2,0,"DURACAO - 2 - Sem Outlier - 0","plnorm","Anderson-Darling test of goodness-of-fit","Null hypothesis: distribution 'distribuicaoFuncao'",3.76626858136586,0.0113612845666039,-1.63659824002731,2.56741710405753,NA
"292",2,2,0,"DURACAO - 2 - Sem Outlier - 0","pweibull","One-sample Kolmogorov-Smirnov test","two-sided",0.0520116579904664,0.13010765118363,0.454221519504606,0.669486601682226,NA
"293",2,2,0,"DURACAO - 2 - Sem Outlier - 0","pweibull","Cramer-von Mises test of goodness-of-fit","Null hypothesis: distribution 'distribuicaoFuncao'",0.204459586228432,0.259036807902851,0.454221519504606,0.669486601682226,NA
"294",2,2,0,"DURACAO - 2 - Sem Outlier - 0","pweibull","Anderson-Darling test of goodness-of-fit","Null hypothesis: distribution 'distribuicaoFuncao'",1.66637936739096,0.141315729930927,0.454221519504606,0.669486601682226,NA
"295",2,2,0,"DURACAO - 2 - Sem Outlier - 0","pllogis","One-sample Kolmogorov-Smirnov test","two-sided",0.052755637813967,0.120264798590387,0.660959419493859,0.220793769712825,NA
"296",2,2,0,"DURACAO - 2 - Sem Outlier - 0","pllogis","Cramer-von Mises test of goodness-of-fit","Null hypothesis: distribution 'distribuicaoFuncao'",0.518908610392968,0.0356343163650689,0.660959419493859,0.220793769712825,NA
"297",2,2,0,"DURACAO - 2 - Sem Outlier - 0","pllogis","Anderson-Darling test of goodness-of-fit","Null hypothesis: distribution 'distribuicaoFuncao'",4.01154283303043,0.00861473031799709,0.660959419493859,0.220793769712825,NA
"298",2,2,0,"DURACAO - 2 - Sem Outlier - 0","pgamma","One-sample Kolmogorov-Smirnov test","two-sided",0.0824048060216699,0.00210106609954208,0.321542204606695,0.198225005061495,NA
"299",2,2,0,"DURACAO - 2 - Sem Outlier - 0","pgamma","Cramer-von Mises test of goodness-of-fit","Null hypothesis: distribution 'distribuicaoFuncao'",1.14202854952879,0.00113804617482605,0.321542204606695,0.198225005061495,NA
"300",2,2,0,"DURACAO - 2 - Sem Outlier - 0","pgamma","Anderson-Darling test of goodness-of-fit","Null hypothesis: distribution 'distribuicaoFuncao'",6.5604146936281,0.00053110598119066,0.321542204606695,0.198225005061495,NA
"301",2,2,0,"DURACAO - 2 - Sem Outlier - 0","pcauchy","One-sample Kolmogorov-Smirnov test","two-sided",0.34186232568888,0,0.137203279186683,0.252145602987252,NA
"302",2,2,0,"DURACAO - 2 - Sem Outlier - 0","pcauchy","Cramer-von Mises test of goodness-of-fit","Null hypothesis: distribution 'distribuicaoFuncao'",15.5340898253754,0,0.137203279186683,0.252145602987252,NA
"303",2,2,0,"DURACAO - 2 - Sem Outlier - 0","pcauchy","Anderson-Darling test of goodness-of-fit","Null hypothesis: distribution 'distribuicaoFuncao'",107.793547666799,1.188118811557e-06,0.137203279186683,0.252145602987252,NA
"304",2,2,0,"DURACAO - 2 - Sem Outlier - 0","pexp","One-sample Kolmogorov-Smirnov test","two-sided",0.345107295434743,0,0.616588686547903,NA,NA
"305",2,2,0,"DURACAO - 2 - Sem Outlier - 0","pexp","Cramer-von Mises test of goodness-of-fit","Null hypothesis: distribution 'distribuicaoFuncao'",25.4795650953706,0,0.616588686547903,NA,NA
"306",2,2,0,"DURACAO - 2 - Sem Outlier - 0","pexp","Anderson-Darling test of goodness-of-fit","Null hypothesis: distribution 'distribuicaoFuncao'",232.032779563119,1.188118811557e-06,0.616588686547903,NA,NA
"307",2,2,0,"DURACAO - 2 - Sem Outlier - 0","pnorm","One-sample Kolmogorov-Smirnov test","two-sided",0.318600544100522,0,1.62182673267327,3.43781300662111,NA
"308",2,2,0,"DURACAO - 2 - Sem Outlier - 0","pnorm","Cramer-von Mises test of goodness-of-fit","Null hypothesis: distribution 'distribuicaoFuncao'",16.7046587195859,0,1.62182673267327,3.43781300662111,NA
"309",2,2,0,"DURACAO - 2 - Sem Outlier - 0","pnorm","Anderson-Darling test of goodness-of-fit","Null hypothesis: distribution 'distribuicaoFuncao'",84.7923925329293,1.188118811557e-06,1.62182673267327,3.43781300662111,NA
"310",2,2,0,"DURACAO - 2 - Sem Outlier - 0","ptriangle","One-sample Kolmogorov-Smirnov test","two-sided",0.213732396088194,0,-0.461758232681935,2.28751648937754,-0.132119695810646
"311",2,2,0,"DURACAO - 2 - Sem Outlier - 0","ptriangle","Cramer-von Mises test of goodness-of-fit","Null hypothesis: distribution 'distribuicaoFuncao'",5.60655756341785,0,-0.461758232681935,2.28751648937754,-0.132119695810646
"312",2,2,0,"DURACAO - 2 - Sem Outlier - 0","ptriangle","Anderson-Darling test of goodness-of-fit","Null hypothesis: distribution 'distribuicaoFuncao'",Inf,1.188118811557e-06,-0.461758232681935,2.28751648937754,-0.132119695810646
"313",2,2,1,"DURACAO - 2 - Sem Outlier - 1","plnorm","One-sample Kolmogorov-Smirnov test","two-sided",0.0787804482048206,0.0405810269727694,-1.49425520277204,2.58938655638301,NA
"314",2,2,1,"DURACAO - 2 - Sem Outlier - 1","plnorm","Cramer-von Mises test of goodness-of-fit","Null hypothesis: distribution 'distribuicaoFuncao'",0.475448397248093,0.0459395674630464,-1.49425520277204,2.58938655638301,NA
"315",2,2,1,"DURACAO - 2 - Sem Outlier - 1","plnorm","Anderson-Darling test of goodness-of-fit","Null hypothesis: distribution 'distribuicaoFuncao'",2.87537473296163,0.031701189112862,-1.49425520277204,2.58938655638301,NA
"316",2,2,1,"DURACAO - 2 - Sem Outlier - 1","pweibull","One-sample Kolmogorov-Smirnov test","two-sided",0.0489297866278134,0.439812124069872,0.457662235312894,0.773079761862593,NA
"317",2,2,1,"DURACAO - 2 - Sem Outlier - 1","pweibull","Cramer-von Mises test of goodness-of-fit","Null hypothesis: distribution 'distribuicaoFuncao'",0.110026131246287,0.538187536749556,0.457662235312894,0.773079761862593,NA
"318",2,2,1,"DURACAO - 2 - Sem Outlier - 1","pweibull","Anderson-Darling test of goodness-of-fit","Null hypothesis: distribution 'distribuicaoFuncao'",0.919749272539377,0.402178326217694,0.457662235312894,0.773079761862593,NA
"319",2,2,1,"DURACAO - 2 - Sem Outlier - 1","pllogis","One-sample Kolmogorov-Smirnov test","two-sided",0.0598861017091724,0.21008536225417,0.657840223212107,0.261087789295769,NA
"320",2,2,1,"DURACAO - 2 - Sem Outlier - 1","pllogis","Cramer-von Mises test of goodness-of-fit","Null hypothesis: distribution 'distribuicaoFuncao'",0.36979569227221,0.0868898514865233,0.657840223212107,0.261087789295769,NA
"321",2,2,1,"DURACAO - 2 - Sem Outlier - 1","pllogis","Anderson-Darling test of goodness-of-fit","Null hypothesis: distribution 'distribuicaoFuncao'",2.86108604627304,0.0322386664646221,0.657840223212107,0.261087789295769,NA
"322",2,2,1,"DURACAO - 2 - Sem Outlier - 1","pgamma","One-sample Kolmogorov-Smirnov test","two-sided",0.0770499736877339,0.0480692149962617,0.325497392664084,0.179279200103581,NA
"323",2,2,1,"DURACAO - 2 - Sem Outlier - 1","pgamma","Cramer-von Mises test of goodness-of-fit","Null hypothesis: distribution 'distribuicaoFuncao'",0.570623641381536,0.0264055202385752,0.325497392664084,0.179279200103581,NA
"324",2,2,1,"DURACAO - 2 - Sem Outlier - 1","pgamma","Anderson-Darling test of goodness-of-fit","Null hypothesis: distribution 'distribuicaoFuncao'",3.37826096830094,0.0176855305274385,0.325497392664084,0.179279200103581,NA
"325",2,2,1,"DURACAO - 2 - Sem Outlier - 1","pcauchy","One-sample Kolmogorov-Smirnov test","two-sided",0.338348439518421,0,0.173748224845329,0.31130039057169,NA
"326",2,2,1,"DURACAO - 2 - Sem Outlier - 1","pcauchy","Cramer-von Mises test of goodness-of-fit","Null hypothesis: distribution 'distribuicaoFuncao'",9.2388338207534,0,0.173748224845329,0.31130039057169,NA
"327",2,2,1,"DURACAO - 2 - Sem Outlier - 1","pcauchy","Anderson-Darling test of goodness-of-fit","Null hypothesis: distribution 'distribuicaoFuncao'",63.0031336864689,1.91082802492026e-06,0.173748224845329,0.31130039057169,NA
"328",2,2,1,"DURACAO - 2 - Sem Outlier - 1","pexp","One-sample Kolmogorov-Smirnov test","two-sided",0.332697114098175,0,0.550815355065554,NA,NA
"329",2,2,1,"DURACAO - 2 - Sem Outlier - 1","pexp","Cramer-von Mises test of goodness-of-fit","Null hypothesis: distribution 'distribuicaoFuncao'",14.7709541213306,0,0.550815355065554,NA,NA
"330",2,2,1,"DURACAO - 2 - Sem Outlier - 1","pexp","Anderson-Darling test of goodness-of-fit","Null hypothesis: distribution 'distribuicaoFuncao'",136.251734386658,1.91082802492026e-06,0.550815355065554,NA,NA
"331",2,2,1,"DURACAO - 2 - Sem Outlier - 1","pnorm","One-sample Kolmogorov-Smirnov test","two-sided",0.313652763254224,0,1.81549044585987,3.73821858906805,NA
"332",2,2,1,"DURACAO - 2 - Sem Outlier - 1","pnorm","Cramer-von Mises test of goodness-of-fit","Null hypothesis: distribution 'distribuicaoFuncao'",10.1457688466795,0,1.81549044585987,3.73821858906805,NA
"333",2,2,1,"DURACAO - 2 - Sem Outlier - 1","pnorm","Anderson-Darling test of goodness-of-fit","Null hypothesis: distribution 'distribuicaoFuncao'",51.4137100199591,1.91082802492026e-06,1.81549044585987,3.73821858906805,NA
"334",2,2,1,"DURACAO - 2 - Sem Outlier - 1","ptriangle","One-sample Kolmogorov-Smirnov test","two-sided",0.21195153697967,1.11877174191477e-12,-0.515917277483189,2.74865699579643,-0.186988424611025
"335",2,2,1,"DURACAO - 2 - Sem Outlier - 1","ptriangle","Cramer-von Mises test of goodness-of-fit","Null hypothesis: distribution 'distribuicaoFuncao'",3.22383893790745,2.11636644875668e-08,-0.515917277483189,2.74865699579643,-0.186988424611025
"336",2,2,1,"DURACAO - 2 - Sem Outlier - 1","ptriangle","Anderson-Darling test of goodness-of-fit","Null hypothesis: distribution 'distribuicaoFuncao'",Inf,1.91082802492026e-06,-0.515917277483189,2.74865699579643,-0.186988424611025
"337",2,2,2,"DURACAO - 2 - Sem Outlier - 2","plnorm","One-sample Kolmogorov-Smirnov test","two-sided",0.0757198857503179,0.0546114413487895,-1.46769320680218,2.57668128075036,NA
"338",2,2,2,"DURACAO - 2 - Sem Outlier - 2","plnorm","Cramer-von Mises test of goodness-of-fit","Null hypothesis: distribution 'distribuicaoFuncao'",0.474976761517998,0.0460676551387476,-1.46769320680218,2.57668128075036,NA
"339",2,2,2,"DURACAO - 2 - Sem Outlier - 2","plnorm","Anderson-Darling test of goodness-of-fit","Null hypothesis: distribution 'distribuicaoFuncao'",2.90924763040476,0.0304643327125073,-1.46769320680218,2.57668128075036,NA
"340",2,2,2,"DURACAO - 2 - Sem Outlier - 2","pweibull","One-sample Kolmogorov-Smirnov test","two-sided",0.0496659745819808,0.420810871992182,0.460756462344771,0.788054643442089,NA
"341",2,2,2,"DURACAO - 2 - Sem Outlier - 2","pweibull","Cramer-von Mises test of goodness-of-fit","Null hypothesis: distribution 'distribuicaoFuncao'",0.10243979923813,0.573327949476326,0.460756462344771,0.788054643442089,NA
"342",2,2,2,"DURACAO - 2 - Sem Outlier - 2","pweibull","Anderson-Darling test of goodness-of-fit","Null hypothesis: distribution 'distribuicaoFuncao'",0.888858368700994,0.421090006878809,0.460756462344771,0.788054643442089,NA
"343",2,2,2,"DURACAO - 2 - Sem Outlier - 2","pllogis","One-sample Kolmogorov-Smirnov test","two-sided",0.0573721825952237,0.252590452911721,0.661938505141792,0.268755264802879,NA
"344",2,2,2,"DURACAO - 2 - Sem Outlier - 2","pllogis","Cramer-von Mises test of goodness-of-fit","Null hypothesis: distribution 'distribuicaoFuncao'",0.362354979492712,0.0909925268473154,0.661938505141792,0.268755264802879,NA
"345",2,2,2,"DURACAO - 2 - Sem Outlier - 2","pllogis","Anderson-Darling test of goodness-of-fit","Null hypothesis: distribution 'distribuicaoFuncao'",2.85610787404988,0.0324281681211751,0.661938505141792,0.268755264802879,NA
"346",2,2,2,"DURACAO - 2 - Sem Outlier - 2","pgamma","One-sample Kolmogorov-Smirnov test","two-sided",0.070200023057198,0.090558716709329,0.328432643409584,0.180041336348216,NA
"347",2,2,2,"DURACAO - 2 - Sem Outlier - 2","pgamma","Cramer-von Mises test of goodness-of-fit","Null hypothesis: distribution 'distribuicaoFuncao'",0.547404493231715,0.0301844207759412,0.328432643409584,0.180041336348216,NA
"348",2,2,2,"DURACAO - 2 - Sem Outlier - 2","pgamma","Anderson-Darling test of goodness-of-fit","Null hypothesis: distribution 'distribuicaoFuncao'",3.2994788857589,0.0193610137982675,0.328432643409584,0.180041336348216,NA
"349",2,2,2,"DURACAO - 2 - Sem Outlier - 2","pcauchy","One-sample Kolmogorov-Smirnov test","two-sided",0.336883680733848,0,0.177907665829088,0.315350393575984,NA
"350",2,2,2,"DURACAO - 2 - Sem Outlier - 2","pcauchy","Cramer-von Mises test of goodness-of-fit","Null hypothesis: distribution 'distribuicaoFuncao'",9.2064803938863,0,0.177907665829088,0.315350393575984,NA
"351",2,2,2,"DURACAO - 2 - Sem Outlier - 2","pcauchy","Anderson-Darling test of goodness-of-fit","Null hypothesis: distribution 'distribuicaoFuncao'",62.9354375284609,1.91082802492026e-06,0.177907665829088,0.315350393575984,NA
"352",2,2,2,"DURACAO - 2 - Sem Outlier - 2","pexp","One-sample Kolmogorov-Smirnov test","two-sided",0.331802027794656,0,0.548144173541441,NA,NA
"353",2,2,2,"DURACAO - 2 - Sem Outlier - 2","pexp","Cramer-von Mises test of goodness-of-fit","Null hypothesis: distribution 'distribuicaoFuncao'",14.4308849346861,0,0.548144173541441,NA,NA
"354",2,2,2,"DURACAO - 2 - Sem Outlier - 2","pexp","Anderson-Darling test of goodness-of-fit","Null hypothesis: distribution 'distribuicaoFuncao'",132.929014584194,1.91082802492026e-06,0.548144173541441,NA,NA
"355",2,2,2,"DURACAO - 2 - Sem Outlier - 2","pnorm","One-sample Kolmogorov-Smirnov test","two-sided",0.31197376566896,0,1.82433757961783,3.72011785102709,NA
"356",2,2,2,"DURACAO - 2 - Sem Outlier - 2","pnorm","Cramer-von Mises test of goodness-of-fit","Null hypothesis: distribution 'distribuicaoFuncao'",10.0799039862441,0,1.82433757961783,3.72011785102709,NA
"357",2,2,2,"DURACAO - 2 - Sem Outlier - 2","pnorm","Anderson-Darling test of goodness-of-fit","Null hypothesis: distribution 'distribuicaoFuncao'",51.4533196956976,1.91082802492026e-06,1.82433757961783,3.72011785102709,NA
"358",2,2,2,"DURACAO - 2 - Sem Outlier - 2","ptriangle","One-sample Kolmogorov-Smirnov test","two-sided",0.216190619631096,3.5793590313915e-13,-0.501705633497179,2.92982947097183,-0.260514716647895
"359",2,2,2,"DURACAO - 2 - Sem Outlier - 2","ptriangle","Cramer-von Mises test of goodness-of-fit","Null hypothesis: distribution 'distribuicaoFuncao'",3.27289702093797,1.64166962246526e-08,-0.501705633497179,2.92982947097183,-0.260514716647895
"360",2,2,2,"DURACAO - 2 - Sem Outlier - 2","ptriangle","Anderson-Darling test of goodness-of-fit","Null hypothesis: distribution 'distribuicaoFuncao'",Inf,1.91082802492026e-06,-0.501705633497179,2.92982947097183,-0.260514716647895
"361",2,2,3,"DURACAO - 2 - Sem Outlier - 3","plnorm","One-sample Kolmogorov-Smirnov test","two-sided",0.0825614666261582,0.0276659735962339,-1.48789877012849,2.58617212648194,NA
"362",2,2,3,"DURACAO - 2 - Sem Outlier - 3","plnorm","Cramer-von Mises test of goodness-of-fit","Null hypothesis: distribution 'distribuicaoFuncao'",0.453330191662701,0.0523738564210477,-1.48789877012849,2.58617212648194,NA
"363",2,2,3,"DURACAO - 2 - Sem Outlier - 3","plnorm","Anderson-Darling test of goodness-of-fit","Null hypothesis: distribution 'distribuicaoFuncao'",2.8308358807223,0.0334084359128752,-1.48789877012849,2.58617212648194,NA
"364",2,2,3,"DURACAO - 2 - Sem Outlier - 3","pweibull","One-sample Kolmogorov-Smirnov test","two-sided",0.047568485900408,0.476144756098744,0.456571763787526,0.777626288652626,NA
"365",2,2,3,"DURACAO - 2 - Sem Outlier - 3","pweibull","Cramer-von Mises test of goodness-of-fit","Null hypothesis: distribution 'distribuicaoFuncao'",0.1002091648261,0.584139014546119,0.456571763787526,0.777626288652626,NA
"366",2,2,3,"DURACAO - 2 - Sem Outlier - 3","pweibull","Anderson-Darling test of goodness-of-fit","Null hypothesis: distribution 'distribuicaoFuncao'",0.929744740463093,0.396256648775253,0.456571763787526,0.777626288652626,NA
"367",2,2,3,"DURACAO - 2 - Sem Outlier - 3","pllogis","One-sample Kolmogorov-Smirnov test","two-sided",0.0585608836547608,0.231756937331175,0.659636952951126,0.262263153578204,NA
"368",2,2,3,"DURACAO - 2 - Sem Outlier - 3","pllogis","Cramer-von Mises test of goodness-of-fit","Null hypothesis: distribution 'distribuicaoFuncao'",0.341096436821836,0.103932843439415,0.659636952951126,0.262263153578204,NA
"369",2,2,3,"DURACAO - 2 - Sem Outlier - 3","pllogis","Anderson-Darling test of goodness-of-fit","Null hypothesis: distribution 'distribuicaoFuncao'",2.74927133842192,0.0367910243926053,0.659636952951126,0.262263153578204,NA
"370",2,2,3,"DURACAO - 2 - Sem Outlier - 3","pgamma","One-sample Kolmogorov-Smirnov test","two-sided",0.0841655494822011,0.023388618527417,0.324330130488923,0.175956463852417,NA
"371",2,2,3,"DURACAO - 2 - Sem Outlier - 3","pgamma","Cramer-von Mises test of goodness-of-fit","Null hypothesis: distribution 'distribuicaoFuncao'",0.635651305799637,0.0182235710979685,0.324330130488923,0.175956463852417,NA
"372",2,2,3,"DURACAO - 2 - Sem Outlier - 3","pgamma","Anderson-Darling test of goodness-of-fit","Null hypothesis: distribution 'distribuicaoFuncao'",3.71629377544076,0.012029617347483,0.324330130488923,0.175956463852417,NA
"373",2,2,3,"DURACAO - 2 - Sem Outlier - 3","pcauchy","One-sample Kolmogorov-Smirnov test","two-sided",0.333729975293843,0,0.17871286301457,0.309563930326627,NA
"374",2,2,3,"DURACAO - 2 - Sem Outlier - 3","pcauchy","Cramer-von Mises test of goodness-of-fit","Null hypothesis: distribution 'distribuicaoFuncao'",8.88280164800063,0,0.17871286301457,0.309563930326627,NA
"375",2,2,3,"DURACAO - 2 - Sem Outlier - 3","pcauchy","Anderson-Darling test of goodness-of-fit","Null hypothesis: distribution 'distribuicaoFuncao'",60.9571558077983,1.91082802492026e-06,0.17871286301457,0.309563930326627,NA
"376",2,2,3,"DURACAO - 2 - Sem Outlier - 3","pexp","One-sample Kolmogorov-Smirnov test","two-sided",0.331251447672953,0,0.542503603971219,NA,NA
"377",2,2,3,"DURACAO - 2 - Sem Outlier - 3","pexp","Cramer-von Mises test of goodness-of-fit","Null hypothesis: distribution 'distribuicaoFuncao'",15.3522785065551,0,0.542503603971219,NA,NA
"378",2,2,3,"DURACAO - 2 - Sem Outlier - 3","pexp","Anderson-Darling test of goodness-of-fit","Null hypothesis: distribution 'distribuicaoFuncao'",138.902101329484,1.91082802492026e-06,0.542503603971219,NA,NA
"379",2,2,3,"DURACAO - 2 - Sem Outlier - 3","pnorm","One-sample Kolmogorov-Smirnov test","two-sided",0.312403074766099,0,1.84330573248408,3.76813196684842,NA
"380",2,2,3,"DURACAO - 2 - Sem Outlier - 3","pnorm","Cramer-von Mises test of goodness-of-fit","Null hypothesis: distribution 'distribuicaoFuncao'",10.3623322719003,0,1.84330573248408,3.76813196684842,NA
"381",2,2,3,"DURACAO - 2 - Sem Outlier - 3","pnorm","Anderson-Darling test of goodness-of-fit","Null hypothesis: distribution 'distribuicaoFuncao'",52.5079954845747,1.91082802492026e-06,1.84330573248408,3.76813196684842,NA
"382",2,2,3,"DURACAO - 2 - Sem Outlier - 3","ptriangle","One-sample Kolmogorov-Smirnov test","two-sided",0.209320183739224,2.24431584427975e-12,-0.629407025540105,2.53029144075708,-0.0146634211023245
"383",2,2,3,"DURACAO - 2 - Sem Outlier - 3","ptriangle","Cramer-von Mises test of goodness-of-fit","Null hypothesis: distribution 'distribuicaoFuncao'",3.16277232481443,2.90340215203244e-08,-0.629407025540105,2.53029144075708,-0.0146634211023245
"384",2,2,3,"DURACAO - 2 - Sem Outlier - 3","ptriangle","Anderson-Darling test of goodness-of-fit","Null hypothesis: distribution 'distribuicaoFuncao'",Inf,1.91082802492026e-06,-0.629407025540105,2.53029144075708,-0.0146634211023245
